(set-info :smt-lib-version 2.6)
(set-info :category "crafted")
(set-logic QF_FFA)
(define-sort FF0 () (_ FiniteField 52435875175126190479447740508185965837690552500527637822603658699938581184513))
(declare-fun return_n0_alt () FF0)
(declare-fun mul_n12_alt () FF0)
(declare-fun mul_n17_alt () FF0)
(declare-fun c_n4_alt () FF0)
(declare-fun mul_n16_alt () FF0)
(declare-fun h_n5_alt () FF0)
(declare-fun mul_n15_alt () FF0)
(declare-fun g_n7_alt () FF0)
(declare-fun mul_n14_alt () FF0)
(declare-fun a_n8_alt () FF0)
(declare-fun mul_n13_alt () FF0)
(declare-fun mul_n9_alt () FF0)
(declare-fun b_n6_alt () FF0)
(declare-fun mul_n11_alt () FF0)
(declare-fun mul_n10_alt () FF0)
(declare-fun f_n1_alt () FF0)
(declare-fun d_n3_alt () FF0)
(declare-fun e_n2_alt () FF0)
(declare-fun return_n0 () FF0)
(declare-fun mul_n12 () FF0)
(declare-fun mul_n17 () FF0)
(declare-fun c_n4 () FF0)
(declare-fun mul_n16 () FF0)
(declare-fun h_n5 () FF0)
(declare-fun mul_n15 () FF0)
(declare-fun g_n7 () FF0)
(declare-fun mul_n14 () FF0)
(declare-fun a_n8 () FF0)
(declare-fun mul_n13 () FF0)
(declare-fun mul_n9 () FF0)
(declare-fun b_n6 () FF0)
(declare-fun mul_n11 () FF0)
(declare-fun mul_n10 () FF0)
(declare-fun f_n1 () FF0)
(declare-fun d_n3 () FF0)
(declare-fun e_n2 () FF0)
(assert 
  (let ((let0 return_n0_alt))
  (let ((let1 mul_n12_alt))
  (let ((let2 mul_n17_alt))
  (let ((let3 (ff.mul let2 let1)))
  (let ((let4 (= let3 let0)))
  (let ((let5 c_n4_alt))
  (let ((let6 mul_n16_alt))
  (let ((let7 (ff.mul let6 let5)))
  (let ((let8 (= let7 let2)))
  (let ((let9 h_n5_alt))
  (let ((let10 mul_n15_alt))
  (let ((let11 (ff.mul let10 let9)))
  (let ((let12 (= let11 let6)))
  (let ((let13 (as ff1 FF0)))
  (let ((let14 (as ff52435875175126190479447740508185965837690552500527637822603658699938581184512 FF0)))
  (let ((let15 g_n7_alt))
  (let ((let16 (ff.mul let15 let14)))
  (let ((let17 (ff.add let16 let13)))
  (let ((let18 mul_n14_alt))
  (let ((let19 (ff.mul let18 let17)))
  (let ((let20 (= let19 let10)))
  (let ((let21 a_n8_alt))
  (let ((let22 mul_n13_alt))
  (let ((let23 (ff.mul let22 let21)))
  (let ((let24 (= let23 let18)))
  (let ((let25 mul_n9_alt))
  (let ((let26 (ff.mul let25 let14)))
  (let ((let27 (ff.add let26 let13)))
  (let ((let28 b_n6_alt))
  (let ((let29 (ff.mul let28 let27)))
  (let ((let30 (= let29 let22)))
  (let ((let31 mul_n11_alt))
  (let ((let32 (ff.add let9 let31)))
  (let ((let33 (ff.mul let32 let27)))
  (let ((let34 (= let33 let1)))
  (let ((let35 (ff.mul let9 let14)))
  (let ((let36 mul_n10_alt))
  (let ((let37 f_n1_alt))
  (let ((let38 (ff.add let37 let36 let35)))
  (let ((let39 d_n3_alt))
  (let ((let40 (ff.mul let39 let38)))
  (let ((let41 (= let40 let31)))
  (let ((let42 e_n2_alt))
  (let ((let43 (ff.mul let37 let14)))
  (let ((let44 (ff.add let43 let42)))
  (let ((let45 (ff.mul let5 let44)))
  (let ((let46 (= let45 let36)))
  (let ((let47 (ff.mul let39 let14)))
  (let ((let48 (ff.add let47 let13)))
  (let ((let49 (ff.mul let28 let14)))
  (let ((let50 (ff.add let49 let13)))
  (let ((let51 (ff.mul let50 let48)))
  (let ((let52 (= let51 let25)))
  (let ((let53 (and let52 let46 let41 let34 let30 let24 let20 let12 let8 let4)))
  (let ((let54 return_n0))
  (let ((let55 mul_n12))
  (let ((let56 mul_n17))
  (let ((let57 (ff.mul let56 let55)))
  (let ((let58 (= let57 let54)))
  (let ((let59 c_n4))
  (let ((let60 mul_n16))
  (let ((let61 (ff.mul let60 let59)))
  (let ((let62 (= let61 let56)))
  (let ((let63 h_n5))
  (let ((let64 mul_n15))
  (let ((let65 (ff.mul let64 let63)))
  (let ((let66 (= let65 let60)))
  (let ((let67 g_n7))
  (let ((let68 (ff.mul let67 let14)))
  (let ((let69 (ff.add let68 let13)))
  (let ((let70 mul_n14))
  (let ((let71 (ff.mul let70 let69)))
  (let ((let72 (= let71 let64)))
  (let ((let73 a_n8))
  (let ((let74 mul_n13))
  (let ((let75 (ff.mul let74 let73)))
  (let ((let76 (= let75 let70)))
  (let ((let77 mul_n9))
  (let ((let78 (ff.mul let77 let14)))
  (let ((let79 (ff.add let78 let13)))
  (let ((let80 b_n6))
  (let ((let81 (ff.mul let80 let79)))
  (let ((let82 (= let81 let74)))
  (let ((let83 mul_n11))
  (let ((let84 (ff.add let63 let83)))
  (let ((let85 (ff.mul let84 let79)))
  (let ((let86 (= let85 let55)))
  (let ((let87 (ff.mul let63 let14)))
  (let ((let88 mul_n10))
  (let ((let89 f_n1))
  (let ((let90 (ff.add let89 let88 let87)))
  (let ((let91 d_n3))
  (let ((let92 (ff.mul let91 let90)))
  (let ((let93 (= let92 let83)))
  (let ((let94 e_n2))
  (let ((let95 (ff.mul let89 let14)))
  (let ((let96 (ff.add let95 let94)))
  (let ((let97 (ff.mul let59 let96)))
  (let ((let98 (= let97 let88)))
  (let ((let99 (ff.mul let91 let14)))
  (let ((let100 (ff.add let99 let13)))
  (let ((let101 (ff.mul let80 let14)))
  (let ((let102 (ff.add let101 let13)))
  (let ((let103 (ff.mul let102 let100)))
  (let ((let104 (= let103 let77)))
  (let ((let105 (and let104 let98 let93 let86 let82 let76 let72 let66 let62 let58)))
  (let ((let106 (= let54 let0)))
  (let ((let107 (not let106)))
  (let ((let108 (= let73 let21)))
  (let ((let109 (= let67 let15)))
  (let ((let110 (= let91 let39)))
  (let ((let111 (= let89 let37)))
  (let ((let112 (= let94 let42)))
  (let ((let113 (= let80 let28)))
  (let ((let114 (= let63 let9)))
  (let ((let115 (= let59 let5)))
  (let ((let116 (and let115 let114 let113 let112 let111 let110 let109 let108)))
  (let ((let117 (and let116 let107 let105 let53)))
  let117
))))))))))))))))))))))))))))))))))))))))))))))))))))))))))))))))))))))))))))))))))))))))))))))))))))))))))))))))))))))
)
(check-sat)
